benchmarks_vrp/CMT12/no_cluster/CMT12_8.vrp
NAME: CMT12_8
TYPE: CVRP
COMMENT: 819.56 - Cluster Nr.8
DIMENSION: 11
CAPACITY: 200
EDGE_WEIGHT_TYPE: EUC_2D
NODE_COORD_TYPE: TWOD_COORDS
NODE_COORD_SECTION: 
10 92 30
4 95 30
8 87 30
2 85 25
3 65 85
9 88 35
11 90 35
1 85 35
7 40 50
5 88 30
6 95 35
DEPOT_SECTION: 
7
-1
DEMAND_SECTION: 
5 10
6 20
10 10
8 10
3 40
1 30
9 20
4 30
11 10
7 0
2 10
EOF
