benchmarks_vrp/CMT12/no_cluster/CMT12_8.tour
NAME: CMT12_8 solution
TYPE: TOUR
TOUR_SECTION:
7 2 8 5 10 4 6 11 9 1 3 -1
-1
EOF